&CONTROL
   calculation      = 'scf'
   pseudo_dir       = './'
/
&SYSTEM
   ecutwfc          = 20.0
   nbands           = 33
   ntyp             = 2
   nat              = 14
   ibrav            = 0
/
&ELECTRONS
/
&IONS
/
&CELL
/

ATOMIC_SPECIES
Si 28.085 Si.pbe-mt_fhi.UPF
H 1.008 H.pbe-mt_fhi.UPF

K_POINTS automatic
3 3 1  0 0 0

CELL_PARAMETERS angstrom
7.67932000000000 0.00000000000000 0.00000000000000
0.00000000000000 3.83966000000000 0.00000000000000
0.00000000000000 0.00000000000000 17.02410000000000

ATOMIC_POSITIONS angstrom
Si 1.2194760000 0.0000000000 4.2649300000 
Si 6.4598440000 0.0000000000 4.9878500000 
Si 1.8004170000 1.9198300000 3.4046500000 
Si 5.8789030000 1.9198300000 3.4046500000 
Si 3.8396600000 1.9198300000 2.1557400000 
Si 0.0000000000 1.9198300000 1.9004400000 
Si 3.8396600000 0.0000000000 0.7439100000 
Si 0.0000000000 0.0000000000 0.5972100000 
Si 1.9198300000 0.0000000000 -0.6787500000  0 0 0
Si 5.7594900000 0.0000000000 -0.6787500000  0 0 0
H 1.9198300000 -1.2086295000 -1.5329248800  0 0 0
H 1.9198300000 1.2086295000 -1.5329248800  0 0 0
H 5.7594900000 -1.2086295000 -1.5329248800  0 0 0
H 5.7594900000 1.2086295000 -1.5329248800  0 0 0

